159
10000
19
3636
1736
7963
207
1
750
4338
3771
2957
5498
7734
3324
797
4086
1044
9
9591
3014
1960
9250
77
3517
1013
1090
2440
1638
3808
7743
2870
6910
1727
205
204
4347
847
1919
5721
1732
4470
5222
5329
6977
274
3939
5462
4723
4788
2908
6297
5175
2176
1887
1
2650
4315
479
3058
8406
8081
136
739
4723
4423
240
5118
127
9480
7043
450
4076
2074
2551
1177
5090
520
2883
3235
117
6597
2186
5094
5402
4833
2523
9015
6663
5731
330
3842
2349
5662
1407
188
4502
8268
1974
1005
6364
452
3803
6745
6229
3169
1920
3767
1594
9520
9625
2139
4912
2817
6391
6483
3539
1668
6022
6304
2257
13
5035
520
9104
4906
2625
240
7982
4240
896
970
6537
2863
4930
3508
6461
4965
7375
375
440
1613
1746
5109
3696
2526
1060
3117
3403
3134
8113
9981
5760
9796
9999
4790
409
4910
5924
2256
5070
